data/rand/rand_032.gr
p tdp 15 50
1 2
1 3
1 5
1 6
1 7
1 13
1 14
1 15
2 3
2 5
2 7
2 13
2 15
3 4
3 6
3 8
3 9
3 13
3 15
4 7
4 8
4 9
4 14
4 15
5 7
5 10
5 12
5 15
7 8
7 11
7 12
7 14
7 15
8 9
8 10
8 11
8 12
8 13
8 14
8 15
10 11
10 12
10 13
10 14
11 13
11 14
11 15
12 15
13 14
14 15
