solutions/best/rand/rand_032.sol
9
15
1
0
8
3
1
5
15
4
8
10
10
7
13
14
